Argumentos: 
./solver.release -i 9 -t 86400 -a 7 -h 86400 -w Testes/Marcos-i9 -m modelo.mod -o modelo.mod 
Seed: 1622589650
hidden-TXT/Sc-n035w4.txt
hidden-TXT/H0-n035w4-2.txt
hidden-TXT/WD-n035w4-9.txt hidden-TXT/WD-n035w4-7.txt hidden-TXT/WD-n035w4-2.txt hidden-TXT/WD-n035w4-2.txt 
Reading model section from modelo.mod...
285 lines were read
Reading data section from Testes/Marcos-i9/9.dat...
7248 lines were read
Generating obj...
Generating H1turnoDia...
Generating H2coberturaMinima...
Generating H3AsucessaoTurnos...
Generating H3BsucessaoTurnos...
Generating H4qualificacao...
Generating S1coberturaOtima...
Generating S2aux1...
Generating S2aux2...
Generating S2aux3...
Generating S2aux7...
Generating S2a...
Generating S2S3aux4...
Generating S2S3aux5...
Generating S2S3aux6...
Generating S2S3aux8...
Generating S2c...
Generating S2chist...
Generating S2d...
Generating S2dHist...
Generating S2b...
Generating S2bHist...
Generating auxS5...
Generating S6a...
Generating S6b...
Generating auxS7...
Generating S7...
Model has been successfully generated
Writing problem data to `Testes/Marcos-i9/9.lp'...
2991650 lines were written
CPX0000  Tried aggregator 2 times.
CPX0000  Aggregator has done 8648 substitutions...
CPX0000  MIP Presolve eliminated 84907 rows and 92070 columns.
CPX0000  MIP Presolve modified 1963 coefficients.
CPX0000  Aggregator did 8648 substitutions.
CPX0000  Reduced MIP has 1012527 rows, 96425 columns, and 3398078 nonzeros.
CPX0000  Reduced MIP has 96188 binaries, 237 generals, 0 SOSs, and 0 indicators.
CPX0000  Presolve time = 13.48 sec. (10459.27 ticks)
CPX0000  Probing time = 0.33 sec. (65.56 ticks)
CPX0000  Tried aggregator 1 time.
CPX0000  MIP Presolve eliminated 15 rows and 15 columns.
CPX0000  MIP Presolve modified 116 coefficients.
CPX0000  Reduced MIP has 1012512 rows, 96410 columns, and 3397975 nonzeros.
CPX0000  Reduced MIP has 96188 binaries, 222 generals, 0 SOSs, and 0 indicators.
CPX0000  Presolve time = 8.94 sec. (5666.56 ticks)
CPX0000  Probing time = 0.27 sec. (65.01 ticks)
CPX0000  Clique table members: 792503.
CPX0000  MIP emphasis: balance optimality and feasibility.
CPX0000  MIP search method: dynamic search.
CPX0000  Parallel mode: none, using 1 thread.
CPX0000  Root relaxation solution time = 36388.54 sec. (8369499.85 ticks)
CPX0000
CPX0000          Nodes                                         Cuts/
CPX0000     Node  Left     Objective  IInf  Best Integer    Best Bound    ItCnt     Gap
CPX0000
CPX0000        0     0      180.0000 13600                    180.0000  5700242
CPX0000
CPX0000  GUB cover cuts applied:  112
CPX0000  Clique cuts applied:  59
CPX0000  Cover cuts applied:  59
CPX0000  Flow cuts applied:  3
CPX0000  Mixed integer rounding cuts applied:  114
CPX0000  Zero-half cuts applied:  251
CPX0000  Gomory fractional cuts applied:  6
CPX0000
CPX0000  Root node processing (before b&c):
CPX0000    Real time             = 86401.61 sec. (13909536.69 ticks)
CPX0000  Sequential b&c:
CPX0000    Real time             =    0.00 sec. (0.00 ticks)
CPX0000                            ------------
CPX0000  Total (root+branch&cut) = 86401.61 sec. (13909536.69 ticks)
H2 understaffing: 347
H3 shiftTypeSuccessions: 6
S1 optimalCoverage: 840
S2a consecutiveShift: 12255 = (6,811 )
S2b consecutiveWorkingDays: 25380 = ( 0,846 )
S3 consecutiveDaysOff: 150 = ( 5,0 )
S4 preferences: 580
S5 completeWeekend: 0
S6 totalAssignments: 9100
S7 totalWorkingWeekeends: 2520
 

Cost Solution: 403825

File "Solucao/n035w4-2-9-7-2-2_w0.txt", unknown skill: HN_0 for nurse HN_0 on day Monday for shift type Early

     Syntax:
     java -jar validator.jar --sce scenario --his history --weeks week_1...week_n --sols sol_1...sol_n [--penaltyonly] [--out outFile] [--verbose]

          scenario           the file containing the scenario
          history            the file containing the initial history
          week_1...week_n    the files containing the week data
          sol_1...sol_n      the files containing the solutions for the weeks
          --penaltyonly      option to print only the penalty value
          --out outfile      option: print output to outfile
          --verbose          option: prints a detailed report of violations per nurse
